#######################



#######################
Set parameter TimeLimit to value 500
Set parameter SoftMemLimit to value 125
Set parameter LogFile to value 1003-MIPFocus0-Presolve1-TimeLimit500-k16x240-4.log
Set parameter Presolve to value 1
Set parameter Seed to value 14
Using license file /opt/gurobi/gurobi.lic

Gurobi Optimizer version 10.0.3 build v10.0.3rc0 (linux64)
Copyright (c) 2023, Gurobi Optimization, LLC

Read MPS format model from file /miplib2010/k16x240.mps.bz2
Reading time = 0.19 seconds
k16x240: 256 rows, 480 columns, 960 nonzeros

CPU model: Intel(R) Xeon(R) E-2388G CPU @ 3.20GHz, instruction set [SSE2|AVX|AVX2|AVX512]
Thread count: 8 physical cores, 16 logical processors, using up to 16 threads

Optimize a model with 256 rows, 480 columns and 960 nonzeros
Model fingerprint: 0x4e80885f
Variable types: 240 continuous, 240 integer (240 binary)
Coefficient statistics:
  Matrix range     [1e+00, 1e+03]
  Objective range  [1e+00, 1e+03]
  Bounds range     [1e+00, 1e+03]
  RHS range        [4e+00, 4e+02]
Found heuristic solution: objective 19431.000000
Presolve time: 0.02s
Presolved: 256 rows, 480 columns, 960 nonzeros
Variable types: 240 continuous, 240 integer (240 binary)

Root relaxation: objective 2.769838e+03, 51 iterations, 0.00 seconds (0.00 work units)

    Nodes    |    Current Node    |     Objective Bounds      |     Work
 Expl Unexpl |  Obj  Depth IntInf | Incumbent    BestBd   Gap | It/Node Time

     0     0 2769.83800    0   14 19431.0000 2769.83800  85.7%     -    0s
H    0     0                    11359.000000 2769.83800  75.6%     -    0s
H    0     0                    11195.000000 2769.83800  75.3%     -    0s
H    0     0                    11074.000000 8084.69631  27.0%     -    0s
     0     0 8084.69631    0   26 11074.0000 8084.69631  27.0%     -    0s
H    0     0                    10916.000000 8084.69631  25.9%     -    0s
     0     0 8528.16906    0   24 10916.0000 8528.16906  21.9%     -    0s
H    0     0                    10750.000000 8539.15185  20.6%     -    0s
     0     0 8539.15185    0   34 10750.0000 8539.15185  20.6%     -    0s
     0     0 8548.03675    0   29 10750.0000 8548.03675  20.5%     -    0s
     0     0 8731.12748    0   35 10750.0000 8731.12748  18.8%     -    0s
     0     0 8793.45668    0   30 10750.0000 8793.45668  18.2%     -    0s
     0     0 8814.58659    0   29 10750.0000 8814.58659  18.0%     -    0s
     0     0 8817.22114    0   32 10750.0000 8817.22114  18.0%     -    0s
     0     0 8991.51483    0   36 10750.0000 8991.51483  16.4%     -    0s
     0     0 8995.39244    0   35 10750.0000 8995.39244  16.3%     -    0s
     0     0 9017.64212    0   29 10750.0000 9017.64212  16.1%     -    0s
H    0     0                    10748.000000 9017.64212  16.1%     -    0s
     0     0 9024.07225    0   36 10748.0000 9024.07225  16.0%     -    0s
     0     0 9059.36282    0   33 10748.0000 9059.36282  15.7%     -    0s
     0     0 9059.36282    0   33 10748.0000 9059.36282  15.7%     -    0s
     0     2 9059.36282    0   33 10748.0000 9059.36282  15.7%     -    0s
H   34    40                    10681.000000 9210.16279  13.8%  53.8    0s
H   78    80                    10678.000000 9210.16279  13.7%  39.6    0s
H 1837  1258                    10674.000000 9429.66512  11.7%  23.8    1s
 31000 11924 10526.1610   31    9 10674.0000 10001.1585  6.30%  26.2    5s
 71692 19043 10479.4422   33   13 10674.0000 10190.4200  4.53%  27.6   10s
 111649 18146     cutoff   36      10674.0000 10339.2665  3.14%  28.0   15s
 150894  8700     cutoff   37      10674.0000 10492.4857  1.70%  27.9   20s

Cutting planes:
  Gomory: 2
  Lift-and-project: 14
  Cover: 83
  Implied bound: 46
  MIR: 175
  Flow cover: 312
  Flow path: 64
  Inf proof: 4
  Zero half: 12
  Network: 54
  Relax-and-lift: 2

Explored 164921 nodes (4485350 simplex iterations) in 22.01 seconds (27.31 work units)
Thread count was 16 (of 16 available processors)

Solution count 10: 10674 10678 10681 ... 19431

Optimal solution found (tolerance 1.00e-04)
Best objective 1.067400000000e+04, best bound 1.067400000000e+04, gap 0.0000%
